c description: Random 3-CNF over 17 variables and 72 clauses
c generator: CNFgen (0.9.2)
c copyright: (C) 2012-2022 Massimo Lauria <massimo.lauria@uniroma1.it>
c url: https://massimolauria.net/cnfgen
c command line: cnfgen --output CNF_4.28/17_bit_72_106.cnf randkcnf 3 17 72
c
p cnf 17 72
1 -10 13 0
-4 -14 -17 0
-1 7 17 0
6 -10 -12 0
6 10 -13 0
1 -10 -16 0
-2 4 -10 0
5 -7 -17 0
6 -14 -15 0
-4 -5 14 0
-4 14 17 0
1 9 -16 0
6 11 -17 0
-6 -9 -11 0
3 4 13 0
-6 8 -9 0
4 -8 16 0
13 16 17 0
-7 12 -14 0
3 -12 -17 0
1 -12 16 0
-1 2 15 0
4 -12 -16 0
-10 -14 -15 0
-6 -14 -15 0
1 -11 -17 0
3 -6 -15 0
2 4 8 0
-12 -15 16 0
-1 6 15 0
-1 -4 12 0
-3 -12 15 0
-3 -5 8 0
-1 2 12 0
-1 -7 -17 0
4 -13 16 0
-1 7 -9 0
1 10 11 0
3 -12 17 0
-8 -10 -14 0
2 9 -13 0
11 13 15 0
-8 -12 15 0
4 11 -16 0
3 11 -14 0
1 -5 12 0
3 5 15 0
-4 7 -10 0
1 -6 15 0
7 -14 17 0
-5 13 -15 0
-7 10 13 0
-2 8 -13 0
7 11 13 0
-6 7 -16 0
-3 7 10 0
4 6 10 0
-15 -16 -17 0
-5 7 11 0
-1 12 16 0
6 -16 -17 0
-8 -15 16 0
-2 5 10 0
1 14 -16 0
-2 -4 -10 0
-7 13 -15 0
-2 6 9 0
-4 5 14 0
-4 -11 -14 0
1 -13 16 0
-7 -12 13 0
9 11 17 0
